\ Model RRP_copy
\ LP format - for model browsing. Use MPS format to capture full model detail.
Maximize
 
Subject To
 R937: 28 x_kij[2,11,13] + t_ki[2,11] - t_ki[2,13] <= -5.180140985207423
 R970: 28 x_kij[2,13,11] - t_ki[2,11] + t_ki[2,13] <= -5.180140985207423
Bounds
 t_ki[2,11] free
 t_ki[2,13] free
Binaries
 x_kij[2,11,13] x_kij[2,13,11]
End
